
n_res = 6;
rcap = [88, 96, 85, 83, 656, 799];
rtype = [1, 1, 1, 1, 2, 2];
n_tasks = 50;
modes =  [{1, 2, 3}, {4, 5, 6}, {7, 8, 9}, {10, 11, 12}, {13, 14, 15}, {16, 17, 18}, {19, 20, 21}, {22, 23, 24}, {25, 26, 27}, {28, 29, 30}, {31, 32, 33}, {34, 35, 36}, {37, 38, 39}, {40, 41, 42}, {43, 44, 45}, {46, 47, 48}, {49, 50, 51}, {52, 53, 54}, {55, 56, 57}, {58, 59, 60}, {61, 62, 63}, {64, 65, 66}, {67, 68, 69}, {70, 71, 72}, {73, 74, 75}, {76, 77, 78}, {79, 80, 81}, {82, 83, 84}, {85, 86, 87}, {88, 89, 90}, {91, 92, 93}, {94, 95, 96}, {97, 98, 99}, {100, 101, 102}, {103, 104, 105}, {106, 107, 108}, {109, 110, 111}, {112, 113, 114}, {115, 116, 117}, {118, 119, 120}, {121, 122, 123}, {124, 125, 126}, {127, 128, 129}, {130, 131, 132}, {133, 134, 135}, {136, 137, 138}, {139, 140, 141}, {142, 143, 144}, {145, 146, 147}, {148, 149, 150}];
succ =  [{49, 30, 26, 25, 23, 22, 19, 16, 14}, {50, 39, 33, 32, 31, 30, 20, 10}, {48, 43, 29, 15, 7}, {33, 32, 29, 26, 25, 24, 23, 14}, {47, 45, 42, 31, 29, 26, 25, 23, 22, 18}, {49, 45, 30, 29, 24, 22, 13}, {47, 46, 42, 40, 39, 32, 31, 30, 27, 26, 22}, {45, 44, 30, 25, 24, 13}, {47, 44, 42, 41, 40, 39, 38, 35, 33, 30, 24}, {49, 47, 46, 43, 42, 40, 29, 26, 22}, {48, 46, 45, 43, 42, 40, 39, 37, 36, 31}, {42, 39, 38, 33, 32, 31, 30, 29}, {46, 43, 42, 41, 40, 39, 36, 26}, {47, 44, 42, 40, 39, 38, 37, 31}, {46, 42, 36, 22}, {48, 46, 41, 39, 35, 29}, {44, 41, 40, 39, 38, 32}, {48, 43, 40, 39, 37, 35}, {43, 41, 40, 39, 35}, {43, 37, 35, 29}, {46, 45, 26}, {44, 41, 38, 35}, {41, 40, 38, 35}, {43, 37, 36}, {40, 36, 35}, {38, 37}, {45, 37}, {30}, {36}, {36}, {35}, {35}, {45}, {39}, {}, {}, {}, {}, {}, {}, {}, {}, {}, {}, {}, {}, {}, {}, {}, {}];
n_opt = 150;
dur = [5, 13, 17, 6, 8, 19, 1, 15, 20, 12, 13, 21, 16, 18, 25, 4, 5, 29, 10, 11, 28, 23, 24, 28, 15, 17, 18, 12, 19, 25, 7, 13, 26, 3, 17, 29, 2, 14, 15, 2, 3, 27, 2, 13, 24, 1, 21, 26, 4, 24, 26, 2, 14, 23, 20, 24, 25, 8, 27, 29, 24, 28, 29, 11, 16, 26, 2, 5, 8, 3, 15, 16, 7, 21, 22, 21, 28, 29, 2, 11, 30, 12, 14, 17, 8, 9, 16, 10, 22, 30, 5, 7, 18, 12, 15, 18, 1, 3, 29, 12, 15, 29, 3, 17, 24, 5, 7, 11, 10, 12, 22, 14, 24, 25, 6, 7, 27, 2, 11, 12, 1, 5, 11, 3, 18, 29, 3, 8, 27, 13, 18, 30, 6, 11, 18, 3, 21, 23, 11, 28, 29, 4, 12, 20, 7, 9, 15, 11, 15, 30];
rreq = [|11, 8, 4, 10, 7, 2, 21, 14, 11, 29, 26, 24, 22, 18, 18, 25, 21, 18, 22, 16, 13, 12, 12, 12, 11, 11, 10, 25, 20, 18, 5, 5, 3, 24, 22, 21, 16, 15, 15, 21, 18, 17, 12, 10, 8, 26, 16, 10, 15, 15, 12, 17, 16, 14, 28, 26, 26, 20, 20, 20, 22, 20, 17, 9, 6, 5, 7, 5, 4, 15, 14, 14, 27, 20, 16, 17, 15, 14, 23, 17, 2, 15, 13, 11, 26, 25, 19, 22, 18, 15, 21, 18, 13, 18, 10, 9, 22, 9, 6, 29, 26, 24, 22, 21, 21, 30, 22, 12, 9, 8, 8, 11, 9, 7, 19, 19, 19, 26, 25, 25, 27, 24, 21, 22, 19, 7, 1, 1, 1, 11, 9, 9, 17, 17, 17, 8, 8, 8, 10, 6, 5, 20, 13, 6, 13, 9, 6, 20, 14, 11
 |16, 11, 11, 25, 24, 24, 15, 12, 9, 7, 7, 7, 22, 21, 18, 8, 7, 3, 11, 10, 6, 22, 15, 7, 24, 18, 14, 22, 22, 15, 18, 15, 7, 23, 18, 13, 24, 19, 17, 15, 8, 8, 30, 17, 11, 17, 11, 10, 26, 12, 9, 26, 22, 19, 25, 25, 25, 21, 20, 18, 25, 22, 14, 26, 25, 25, 29, 27, 23, 21, 21, 21, 10, 9, 9, 22, 16, 11, 28, 13, 3, 19, 17, 15, 20, 11, 2, 11, 10, 10, 9, 8, 6, 9, 7, 4, 22, 19, 14, 18, 15, 5, 18, 16, 15, 14, 11, 11, 19, 18, 14, 22, 17, 12, 22, 19, 14, 4, 2, 1, 20, 13, 12, 21, 17, 9, 20, 19, 19, 15, 9, 3, 22, 15, 10, 18, 15, 12, 21, 16, 12, 15, 11, 11, 25, 18, 13, 20, 17, 16
 |18, 17, 17, 11, 10, 10, 8, 5, 4, 13, 9, 5, 19, 18, 18, 1, 1, 1, 13, 6, 6, 11, 10, 10, 24, 23, 22, 22, 15, 11, 11, 11, 11, 23, 21, 19, 16, 13, 11, 17, 13, 8, 23, 20, 17, 11, 7, 6, 9, 7, 4, 19, 12, 8, 16, 10, 6, 26, 24, 24, 22, 14, 11, 19, 16, 12, 19, 15, 13, 30, 24, 22, 25, 22, 19, 17, 16, 7, 17, 15, 9, 24, 24, 22, 14, 7, 4, 9, 8, 5, 14, 9, 7, 25, 24, 24, 28, 22, 19, 26, 23, 22, 24, 24, 21, 27, 18, 15, 12, 6, 5, 6, 6, 4, 20, 14, 8, 5, 4, 4, 11, 4, 4, 16, 14, 14, 17, 9, 6, 26, 25, 25, 14, 13, 13, 26, 16, 11, 24, 17, 9, 11, 10, 5, 21, 17, 17, 26, 17, 14
 |13, 13, 7, 22, 12, 9, 25, 23, 20, 26, 25, 23, 15, 11, 9, 19, 19, 19, 11, 8, 6, 26, 21, 14, 6, 5, 3, 25, 19, 17, 29, 20, 7, 17, 16, 16, 23, 20, 11, 23, 22, 19, 9, 7, 4, 6, 5, 4, 15, 9, 7, 14, 11, 10, 16, 7, 2, 27, 22, 19, 6, 4, 2, 16, 14, 13, 24, 22, 16, 23, 19, 17, 25, 25, 23, 24, 20, 17, 13, 9, 2, 15, 9, 7, 5, 4, 3, 21, 17, 11, 22, 22, 22, 19, 16, 15, 18, 11, 7, 12, 12, 9, 19, 19, 19, 22, 22, 22, 26, 21, 17, 12, 12, 12, 23, 16, 12, 24, 20, 8, 26, 24, 23, 4, 3, 3, 16, 15, 15, 29, 20, 8, 20, 20, 20, 20, 15, 14, 8, 6, 4, 26, 25, 21, 10, 8, 7, 14, 11, 9
 |16, 16, 14, 20, 16, 14, 16, 11, 8, 17, 12, 9, 16, 15, 15, 24, 23, 23, 28, 25, 23, 11, 10, 8, 13, 12, 11, 26, 26, 24, 26, 19, 14, 14, 9, 7, 20, 13, 2, 9, 5, 1, 23, 16, 15, 7, 6, 4, 16, 10, 7, 24, 18, 15, 19, 11, 7, 17, 10, 7, 22, 12, 7, 3, 3, 2, 12, 8, 5, 18, 12, 8, 26, 23, 22, 4, 3, 2, 27, 16, 3, 19, 16, 12, 26, 20, 16, 23, 13, 8, 26, 19, 16, 26, 23, 16, 6, 6, 6, 16, 15, 15, 4, 3, 3, 9, 6, 5, 6, 6, 6, 24, 21, 15, 7, 7, 7, 6, 5, 5, 7, 6, 6, 4, 2, 2, 8, 6, 6, 25, 23, 21, 12, 10, 4, 25, 17, 10, 26, 24, 20, 20, 18, 12, 15, 11, 2, 7, 5, 2
 |25, 19, 16, 7, 4, 4, 23, 11, 7, 22, 17, 13, 10, 6, 2, 3, 3, 3, 22, 12, 1, 28, 24, 17, 9, 8, 4, 13, 11, 7, 17, 16, 15, 29, 17, 3, 14, 9, 8, 14, 14, 14, 26, 25, 23, 22, 16, 15, 25, 16, 13, 15, 9, 6, 21, 18, 10, 23, 22, 20, 22, 19, 19, 18, 18, 16, 24, 20, 16, 16, 15, 12, 20, 20, 19, 27, 27, 27, 29, 23, 17, 16, 13, 1, 23, 19, 12, 20, 17, 10, 29, 19, 15, 8, 5, 5, 19, 18, 18, 16, 12, 9, 23, 23, 23, 21, 17, 17, 11, 5, 3, 27, 27, 23, 17, 15, 12, 17, 17, 16, 12, 8, 3, 13, 10, 3, 19, 15, 14, 22, 20, 15, 20, 18, 17, 14, 10, 7, 23, 18, 14, 26, 22, 22, 28, 26, 25, 24, 21, 16|];